c [ -1 2 3 -4 5 -6 7 8 9 10 ]
c r=8.000 p0=0.080
p cnf 10 80
-1 -2 7 0
7 6 4 0
-8 -1 4 0
8 -6 -9 0
-8 5 -7 0
9 -2 -10 0
-8 7 -2 0
3 9 -8 0
7 -5 -8 0
1 5 -9 0
-1 -4 9 0
5 6 2 0
9 5 -2 0
2 -7 -9 0
-1 -4 10 0
-3 2 -8 0
10 -7 2 0
-10 -8 3 0
9 -8 -5 0
-1 6 -3 0
-9 -4 6 0
-8 7 1 0
10 -7 -2 0
2 1 6 0
-2 -6 -8 0
-5 -4 -2 0
5 3 7 0
2 4 1 0
9 -7 -6 0
5 -1 2 0
6 -5 10 0
-1 -5 -2 0
-7 -9 3 0
8 2 6 0
9 -5 8 0
-7 3 -2 0
2 -7 -4 0
-8 -7 -4 0
8 4 6 0
-8 6 2 0
5 -6 1 0
10 -7 -5 0
-6 5 1 0
5 3 -4 0
6 10 3 0
3 7 6 0
7 -2 9 0
-10 9 -5 0
-8 9 4 0
2 9 4 0
-5 10 2 0
2 1 -3 0
-9 8 -2 0
-2 -1 7 0
1 3 -7 0
7 -4 5 0
-8 1 -6 0
-4 7 -2 0
1 -2 3 0
-9 10 -7 0
-7 5 6 0
-3 7 -8 0
5 8 -3 0
-5 8 -9 0
7 -9 -10 0
10 -8 9 0
5 -2 -10 0
9 -1 4 0
3 1 -5 0
-7 10 -4 0
-10 -4 -7 0
8 -6 -9 0
3 -8 6 0
-4 9 1 0
-4 -7 -10 0
-8 10 -3 0
-6 -4 -7 0
-10 2 -3 0
10 9 -6 0
6 -7 5 0
